
  18    0


   0  10 2 3 4 5 6 13 14 15 16 17 
   3   4 12 9 8 7 
   2   3 9 8 7 
   4   2 11 10 
   4   2 8 7 
   4   1 7 
  10   1 18
   1   1 18
   5   1 18
   8   1 18
   6   1 18
   4   1 18
  10   1 18
   7   1 18
   9   1 18
   2   1 18
   5   1 18
   0   0 
